# Nucleosome dumbell
units	     lj
dimension    3
boundary     p p p
log	     sim.log

# atom style, potential type:
atom_style  hybrid ellipsoid full

# Random number seed for orientation
variable random equal 12345

# Simulation Temperature
variable T equal 4.0

special_bonds lj 1 1 1

# GB parameters:             gamma upsilon  mu  cutoff
pair_style zewdie     1.9152 2.7322 1.2633 2.3440 1.0101 &
                      1.6957 -0.7641 -0.1480 -0.2582 0.5112

# Specify the different interaction styles
bond_style	  harmonic

# Read in the configuration
read_data in.lammps

# set parameters:
set 	     group all mass 1.0
#set 	     group all shape 1 2 2

#set group all quat/random ${random}

## potential parameters:
#            i j   eps   sig  eps:ia  ib  ic  ja  jb  jc  (cutoff)
pair_coeff   1 1 1.0 1.0 10.0

#Bond Coeffs
bond_coeff  1  10.0   2.0

################################################################

timestep     0.00001

# Initialize velocities from a Gaussian distribution
#velocity all create ${T} ${random} rot yes mom yes dist gaussian

compute	q all property/atom quatw quati quatj quatk
compute rot all erotate/asphere
compute mom all property/atom vx vy vz
compute amom all property/atom angmomx angmomy angmomz

variable mystep equal step
variable myerot equal c_rot
#variable myetot equal etotal+c_rot
variable myetot equal etotal+c_rot*0.5




fix 1 all   nve/asphere
#fix 2 all   langevin   ${T} ${T} 0.00217256 ${random} angmom 3.33333
#fix 3 all restrain bond 1 2 1.0 1.0 2.0

fix 4 all ave/time 1000 1 1000 c_rot v_myetot file energy.dat
#fix 5 all ave/time 1000 1 1000 mass vx vy vz c_amom[1] c_amom[2] c_amom[3] file momentum.dat
#fix 5 all print 100000 "${mystep} ${myerot} ${myetot}" file energy2.dat


# dump trajectory during corrent iteration:
dump	     1 all custom 1000 traj.dump id type x y z c_q[1] c_q[2] c_q[3] c_q[4] 
# dump to check linear and angular momentum are conserved
dump	     2 all custom 1000 traj-angmom.dump id type x y z c_amom[1] c_amom[2] c_amom[3] mass vx vy vz

# thermo data:
thermo_style custom step pe ke epair ebond c_rot etotal v_myetot

thermo	     100000
#thermo_modify flush yes

reset_timestep   0
run	    10000000



#write_restart  data.rest
